%nprocshared=2
%mem=2GB
%chk=formamide_monomer_tdc_calc.chk
# b3lyp/6-31g* freq=(Raman) iop(7/33=1) nosymm geom=check guess=read

Formamide TDC Calc

0 1

