%nprocshared=2
%mem=2GB
%chk=formamide_wb97xd.opt.chk
# wb97xd/6-31+g* Pop=NaturalOrbital opt freq

Formamide geometry optimization

0 1
C
O 1 1.3
N 1 1.3 2 120.0
H 1 1.0 2 120.0 3 180.0
H 3 1.0 1 120.0 2 180.0
H 3 1.0 1 120.0 2 0.0



